solving instance uflp nldep orlib 72 cubic
Set parameter TokenServer to value "licences.gerad.lan"
Set parameter MIPGap to value 1e-06
Set parameter FuncPieceError to value 1e-06
Set parameter Threads to value 1
Set parameter FuncPieces to value -2
Set parameter TimeLimit to value 3600
Warning: zero or small (< 1e-13) coefficient for the highest term of polynomial function.
Warning: no quadratic or higher terms for polynomial function.
Gurobi Optimizer version 12.0.2 build v12.0.2rc0 (linux64 - "AlmaLinux 9.6 (Sage Margay)")

CPU model: Intel(R) Xeon(R) Gold 6258R CPU @ 2.70GHz, instruction set [SSE2|AVX|AVX2|AVX512]
Thread count: 56 physical cores, 56 logical processors, using up to 1 threads

Non-default parameters:
TimeLimit  3600
MIPGap  1e-06
Threads  1
FuncPieces  -2
FuncPieceError  1e-06

Optimize a model with 882 rows, 864 columns and 3263 nonzeros
Model fingerprint: 0x549cc407
Model has 16 function constraints treated as nonlinear
  16 POLY
Variable types: 848 continuous, 16 integer (16 binary)
Coefficient statistics:
  Matrix range     [1e+00, 1e+04]
  Objective range  [1e+00, 1e+06]
  Bounds range     [1e+00, 1e+10]
  RHS range        [1e+00, 1e+00]
Warning: Model contains large bounds
         Consider reformulating model or setting NumericFocus parameter
         to avoid numerical issues.
Presolve removed 67 rows and 20 columns
Presolve time: 0.00s
Presolved: 935 rows, 845 columns, 3379 nonzeros
Presolved model has 15 nonlinear constraint(s)

Solving non-convex MINLP

Variable types: 830 continuous, 15 integer (15 binary)
Found heuristic solution: objective 1248142.9000

Root relaxation: objective 8.863758e+05, 75 iterations, 0.00 seconds (0.00 work units)

    Nodes    |    Current Node    |     Objective Bounds      |     Work
 Expl Unexpl |  Obj  Depth IntInf | Incumbent    BestBd   Gap | It/Node Time

     0     0 886375.773    0   13 1248142.90 886375.773  29.0%     -    0s
     0     0 886375.773    0   13 1248142.90 886375.773  29.0%     -    0s
H    0     0                    891591.24336 886375.773  0.58%     -    0s
     0     1 888122.718    0   13 891591.243 888122.718  0.39%     -    0s

Explored 1942 nodes (2851 simplex iterations) in 1.73 seconds (0.85 work units)
Thread count was 1 (of 56 available processors)

Solution count 2: 891591 1.24814e+06 

Optimal solution found (tolerance 1.00e-06)
Best objective 8.915912433640e+05, best bound 8.915904245822e+05, gap 0.0001%

User-callback calls 4663, time in user-callback 0.00 sec
reading orlib data file ../../../../../instances/uflp/orlib/cap72.txt
primal_bound = 891591.2433640497, dual_bound = 891590.4245822022, gap = 9.183376951910663e-5, time = 1.74
OPTIMAL LOCATIONS:
y[1] = 1.0
y[2] = 1.0
y[3] = 1.0
y[4] = 1.0
y[6] = 1.0
y[7] = 1.0
y[8] = 1.0
y[9] = 1.0
y[10] = 1.0
y[11] = 1.0
y[12] = 1.0
y[13] = 1.0
y[15] = 1.0
y[16] = 1.0
OPTIMAL WAREHOUSING:
f[1] = 1678.0
f[2] = 2370.0
f[3] = 14001.0
f[4] = 7129.0
f[6] = 10479.0
f[7] = 1359.0
f[8] = 2741.0
f[9] = 3016.0
f[10] = 807.0
f[11] = 4854.0
f[12] = 1814.0
f[13] = 6609.0
f[15] = 495.0
f[16] = 916.0
OPTIMAL WAREHOUSING COSTS:
nlobj[1] = 3467.823588208087
nlobj[2] = 3593.282072079852
nlobj[3] = 4631.573551096908
nlobj[4] = 4233.837366646709
nlobj[5] = 0.0
nlobj[6] = 4490.252803280511
nlobj[7] = 3406.9287847052506
nlobj[8] = 3656.8883351991312
nlobj[9] = 3702.427215989974
nlobj[10] = 3296.8730404401954
nlobj[11] = 0.0
nlobj[12] = 3493.192263726976
nlobj[13] = 4180.992058818109
nlobj[14] = 0.0
nlobj[15] = 3231.9910207533467
nlobj[16] = 3319.081263104631
OPTIMAL ASSIGNMENTS:
x[1, 3] = 1.0
x[1, 6] = 1.0
x[1, 14] = 1.0
x[1, 24] = 1.0
x[2, 7] = 1.0
x[3, 8] = 1.0
x[3, 34] = 1.0
x[4, 11] = 1.0
x[4, 17] = 1.0
x[4, 19] = 1.0
x[4, 21] = 1.0
x[4, 42] = 1.0
x[6, 4] = 1.0
x[6, 13] = 1.0
x[6, 37] = 1.0
x[6, 38] = 1.0
x[6, 40] = 1.0
x[6, 49] = 1.0
x[7, 15] = 1.0
x[7, 20] = 1.0
x[7, 44] = 1.0
x[7, 48] = 1.0
x[8, 1] = 1.0
x[8, 5] = 1.0
x[8, 9] = 1.0
x[8, 10] = 1.0
x[8, 16] = 1.0
x[8, 39] = 1.0
x[8, 43] = 1.0
x[8, 46] = 1.0
x[8, 47] = 1.0
x[9, 18] = 1.0
x[10, 22] = 1.0
x[11, 12] = 1.0
x[11, 23] = 1.0
x[11, 26] = 1.0
x[11, 28] = 1.0
x[11, 29] = 1.0
x[11, 32] = 1.0
x[11, 41] = 1.0
x[12, 2] = 1.0
x[12, 25] = 1.0
x[12, 35] = 1.0
x[12, 36] = 1.0
x[12, 50] = 1.0
x[13, 27] = 1.0
x[13, 45] = 1.0
x[15, 30] = 1.0
x[16, 31] = 1.0
x[16, 33] = 1.0
fixed costs = 162500.0
assignment costs = 842886.1
warehousing costs = 48705.143364049676
total cost = 891591.2433640497
